sets/C/cp-n14-k3.vrp
NAME : cp-n14-k3
COMMENT : (Claudio Procida)
TYPE : CVRP
DIMENSION : 14
EDGE_WEIGHT_TYPE : EUC_2D
CAPACITY : 50
NODE_COORD_SECTION
1 20 52
2 42 39
3 36 38
4  0 17
5  2 44
6 12 15
7 37 35
8 24 54
9  7 24
10 12 32
11 34 51
12 15 23
13 39 21
14 13 59
DEMAND_SECTION
1 0
2 31
3 11
4 8
5 12
6 9
7 1
8 24
9 12
10 1
11 2
12 1
13 7
14 13
DEPOT_SECTION
1
-1
EOF
