sets/C/cp-n14-k3.opt
Route #1: 10 1 6 2
Route #2: 12 11 5 3 8 9 4
Route #3: 7 13
cost 220
